NAME: tsp25_25
COMMENT: 25-tsp problem (Padberg/Rinaldi)
TYPE: TSP
DIMENSION: 25
EDGE_WEIGHT_TYPE : EUC_2D
NODE_COORD_SECTION
1.00 9.00 4.89
2.00 27.11 18.51
3.00 26.25 34.52
4.00 9.77 33.65
5.00 26.60 6.01
6.00 39.31 28.76
7.00 22.40 29.91
8.00 19.39 35.05
9.00 19.80 5.37
10.00 32.18 25.10
11.00 37.97 11.50
12.00 28.41 1.38
13.00 26.81 2.86
14.00 27.70 39.85
15.00 17.37 23.82
16.00 3.04 16.55
17.00 25.10 30.73
18.00 37.29 11.81
19.00 31.85 17.25
20.00 31.62 30.42
21.00 36.08 12.78
22.00 5.63 24.21
23.00 38.43 27.62
24.00 31.03 21.97
25.00 28.40 5.82
